34 1000
5 162
10 112
6 127
6 156
8 198
6 148
8 122
10 132
9 151
9 151
4 174
6 156
8 127
4 198
4 174
8 112
9 132
9 102
11 100
2 162
9 101
11 100
4 183
7 183
3 122
3 195
8 195
8 148
4 102
9 104
10 174
3 101
7 174
9 104
